Minimize
  10.25 MN + 10.25 MB - [ 0.85 MB * IMB ] + 10 MG + 9.9 MK + 9.95 MC + 
12.75 LN + 13.25 LB + 13.25 LG + 13.1 LK + 13.1 LC + 
9.9 PN + 10 PB + 9.625 PG - [ 0.325 PG * IPG ] + 9.83 PK - [ 0.43 PK * IPK ] + 10.88 PC - [ 0.88 PC * IPC ] 
Subject to
  NewYorkDemand:   1 MN + 1 LN + 1 PN >= 6400
  BanagloreDemand: 1 MB + 1 LB + 1 PB >= 3200
  GautengDemand:   1 MG + 1 LG + 1 PG >= 266614
  KwazuluDemand:   1 MK + 1 LK + 1 PK >= 266614
  CapeDemand:      1 MC + 1 LC + 1 PC >= 266614
  IndicatorMB:     1 MB - 9999 IMB >= -8999
  IndicatorPG:     1 PG - 9999 IPG >= -8999
  IndicatorPK:     1 PK - 9999 IPK >= -8999
  IndicatorPC:     1 PC - 9999 IPC >= -8999
 Bounds: 
  MN >= 0
  MB >= 0
  MG >= 0
  MK >= 0
  MC >= 0
  LN >= 0
  LB >= 0
  LG >= 0
  LK >= 0
  LC >= 0
  PN >= 0
  PB >= 0
  PG >= 0
  PK >= 0
  PC >= 0
Binaries
  IMB IPG IPK IPC
End